
Gurobi 8.1.0 (mac64, Python) logging started Sat Feb  9 23:21:14 2019

Academic license - for non-commercial use only

Gurobi 8.1.0 (mac64, Python) logging started Sat Feb  9 23:33:30 2019

Academic license - for non-commercial use only

Gurobi 8.1.0 (mac64, Python) logging started Sat Feb  9 23:34:22 2019

Academic license - for non-commercial use only

Gurobi 8.1.0 (mac64, Python) logging started Sat Feb  9 23:44:01 2019

Academic license - for non-commercial use only

Gurobi 8.1.0 (mac64, Python) logging started Sun Feb 10 00:11:10 2019

Academic license - for non-commercial use only

Gurobi 8.1.0 (mac64, Python) logging started Sun Feb 10 00:11:32 2019

Academic license - for non-commercial use only

Gurobi 8.1.0 (mac64, Python) logging started Sun Feb 10 00:13:43 2019

Academic license - for non-commercial use only
